
  22    4
  10   10   10   10

   0   0   0   0   0   7 2 3 4 6 7 8 11 
   2  10  10  10  10   3 19 10 5 
   9  10  10  10  10   6 21 18 15 14 10 9 
  10  10  10  10  10   5 18 17 15 10 9 
   1  10  10  10  10   5 18 17 15 14 9 
  10  10  10  10  10   5 17 16 15 14 9 
   9  10  10  10  10   6 17 16 15 14 13 12 
   5  10  10  10  10   4 20 19 14 12 
   7  10  10  10  10   2 13 12 
   9  10  10  10  10   2 16 13 
   1  10  10  10  10   1 12 
  10  10  10  10  10   1 22
   8  10  10  10  10   1 22
   7  10  10  10  10   1 22
   4  10  10  10  10   1 22
   6  10  10  10  10   1 22
   8  10  10  10  10   1 22
   7  10  10  10  10   1 22
   4  10  10  10  10   1 22
   1  10  10  10  10   1 22
   9  10  10  10  10   1 22
   0   0   0   0   0   0 
